succeed=True
[CUDA] cuda: usage: 5.43 GB
0 :  {link #0 : 1}, {link #1 : 2}, {link #2 : 3},
1 :  {link #0 : 2}, {link #1 : 3}, {link #2 : 0},
2 :  {link #0 : 3}, {link #1 : 0}, {link #2 : 1},
3 :  {link #0 : 0}, {link #1 : 1}, {link #2 : 2},
0 :  {link #0 : 1}, {link #1 : 2}, {link #2 : 3},
1 :  {link #0 : 2}, {link #1 : 3}, {link #2 : 0},
2 :  {link #0 : 3}, {link #1 : 0}, {link #2 : 1},
3 :  {link #0 : 0}, {link #1 : 1}, {link #2 : 2},
0 :  {link #0 : 1}, {link #1 : 2}, {link #2 : 3},
1 :  {link #0 : 2}, {link #1 : 3}, {link #2 : 0},
2 :  {link #0 : 3}, {link #1 : 0}, {link #2 : 1},
3 :  {link #0 : 0}, {link #1 : 1}, {link #2 : 2},
0 : local 80, cpu 0 {link #0 : g1 0}, {link #1 : g2 0}, {link #2 : g3 0},
1 : local 80, cpu 0 {link #0 : g2 0}, {link #1 : g3 0}, {link #2 : g0 0},
2 : local 80, cpu 0 {link #0 : g3 0}, {link #1 : g0 0}, {link #2 : g1 0},
3 : local 80, cpu 0 {link #0 : g0 0}, {link #1 : g1 0}, {link #2 : g2 0},
0 : local 80, cpu 0 {link #0 : g1 0}, {link #1 : g2 0}, {link #2 : g3 0},
1 : local 80, cpu 0 {link #0 : g2 0}, {link #1 : g3 0}, {link #2 : g0 0},
2 : local 80, cpu 0 {link #0 : g3 0}, {link #1 : g0 0}, {link #2 : g1 0},
3 : local 80, cpu 0 {link #0 : g0 0}, {link #1 : g1 0}, {link #2 : g2 0},
0 : local 80, cpu 0 {link #0 : g1 0}, {link #1 : g2 0}, {link #2 : g3 0},
1 : local 80, cpu 0 {link #0 : g2 0}, {link #1 : g3 0}, {link #2 : g0 0},
2 : local 80, cpu 0 {link #0 : g3 0}, {link #1 : g0 0}, {link #2 : g1 0},
3 : local 80, cpu 0 {link #0 : g0 0}, {link #1 : g1 0}, {link #2 : g2 0},
0 :  {link #0 : 1}, {link #1 : 2}, {link #2 : 3},
1 :  {link #0 : 2}, {link #1 : 3}, {link #2 : 0},
2 :  {link #0 : 3}, {link #1 : 0}, {link #2 : 1},
3 :  {link #0 : 0}, {link #1 : 1}, {link #2 : 2},
0 : local 80, cpu 0 {link #0 : g1 0}, {link #1 : g2 0}, {link #2 : g3 0},
1 : local 80, cpu 0 {link #0 : g2 0}, {link #1 : g3 0}, {link #2 : g0 0},
2 : local 80, cpu 0 {link #0 : g3 0}, {link #1 : g0 0}, {link #2 : g1 0},
3 : local 80, cpu 0 {link #0 : g0 0}, {link #1 : g1 0}, {link #2 : g2 0},
Set parameter WLSAccessID
Set parameter WLSSecret
Set parameter LicenseID
Set parameter TimeLimit to value 200
Set parameter MIPGap to value 0.05
Set parameter LogFile to value "cppsolver.log"
Set parameter Threads to value 40
Academic license - for non-commercial use only - registered to xiaoniu.sxn@sjtu.edu.cn
Gurobi Optimizer version 9.5.1 build v9.5.1rc2 (linux64)
Thread count: 40 physical cores, 80 logical processors, using up to 40 threads
Academic license - for non-commercial use only - registered to xiaoniu.sxn@sjtu.edu.cn
Optimize a model with 33200 rows, 10851 columns and 89344 nonzeros
Model fingerprint: 0xe32a86eb
Variable types: 5 continuous, 10846 integer (10846 binary)
Coefficient statistics:
  Matrix range     [5e-09, 2e+02]
  Objective range  [1e+00, 1e+00]
  Bounds range     [1e+00, 1e+00]
  RHS range        [1e+00, 2e+02]
Found heuristic solution: objective 7205.8252585
Presolve removed 22971 rows and 0 columns
Presolve time: 0.12s
Presolved: 10229 rows, 10851 columns, 41379 nonzeros
Found heuristic solution: objective 7205.8252332
Variable types: 5 continuous, 10846 integer (10846 binary)

Root relaxation: objective 2.997866e+02, 5636 iterations, 0.39 seconds (0.40 work units)

    Nodes    |    Current Node    |     Objective Bounds      |     Work
 Expl Unexpl |  Obj  Depth IntInf | Incumbent    BestBd   Gap | It/Node Time

     0     0  299.78663    0   51 7205.82523  299.78663  95.8%     -    0s
H    0     0                     302.4487072  299.78663  0.88%     -    1s

Explored 1 nodes (10461 simplex iterations) in 1.91 seconds (1.61 work units)
Thread count was 40 (of 80 available processors)

Solution count 3: 302.449 7205.83 7205.83 

Optimal solution found (tolerance 5.00e-02)
Best objective 3.024487072157e+02, best bound 2.997866273392e+02, gap 0.8802%
coll_cache:optimal_local_rate=0.95446,0.954524,0.951247,0.95435,
coll_cache:optimal_remote_rate=0.0322817,0.0322172,0.0354946,0.0323919,
coll_cache:optimal_cpu_rate=0.0132586,0.0132586,0.0132586,0.0132586,
z=302.449
test_result:init:feat_nbytes=56862697472
test_result:init:cache_nbytes=6311759360
test_result:init:feat_nbytes=56862697472
test_result:init:cache_nbytes=6311759360
test_result:init:feat_nbytes=56862697472
test_result:init:cache_nbytes=6311759360
test_result:init:feat_nbytes=56862697472
test_result:init:cache_nbytes=6311759360
    [Step(average) Profiler Level 1 E3 S147]
        L1  sample           0.004316 | send           0.000000
        L1  recv             0.000000 | copy           0.004713 | convert time 0.000000 | train  0.008710
        L1  feature nbytes  520.41 MB | label nbytes 0.00 Bytes
        L1  id nbytes      0.00 Bytes | graph nbytes 0.00 Bytes
        L1  miss nbytes    0.00 Bytes | remote nbytes 0.00 Bytes
        L1  num nodes               0 | num samples           0
        L1  seq duration     0.000000 | refresh duration   0.000000
    [Step(average) Profiler Level 2 E3 S147]
        L2  shuffle     0.000000 | core sample  0.000000 | id remap        0.000000
        L2  graph copy  0.000000 | id copy      0.000000 | cache feat copy 0.004713
        L2  last layer sample time 0.000000 | size 0.000000
    [Step(average) Profiler Level 3 E3 S147]
        L3  khop sample coo  0.000000 | khop sort coo      0.000000 | khop count edge     0.000000 | khop compact edge 0.000000
        L3  walk sample coo  0.000000 | walk topk total    0.000000 | walk topk step1     0.000000 | walk topk step2   0.000000
        L3  walk topk step3  0.000000 | walk topk step4    0.000000 | walk topk step5     0.000000
        L3  walk topk step6  0.000000 | walk topk step7    0.000000
        L3  remap unique     0.000000 | remap populate     0.000000 | remap mapnode       0.000000 | remap mapedge     0.000000
        L3  cache get_index  0.000828 | cache copy_index   0.000000 | cache extract_miss  0.000000
        L3  cache copy_miss  0.000000 | cache combine_miss 0.000000 | cache combine cache 0.003853 | cache combine remote 0.000000
        L3  label extract  0.000000
    [Profiler Level Percentiles E3 S147]
        p50.00_tail_logl2featcopy=0.004869
        p90.00_tail_logl2featcopy=0.005048
        p95.00_tail_logl2featcopy=0.005080
        p99.00_tail_logl2featcopy=0.005147
        p99.90_tail_logl2featcopy=0.007865
[CUDA] cuda: usage: 13.34 GB
config:eval_tsp="2023-04-14 19:54:27"
config:num_worker=4
config:num_intra_size=4
config:root_dir=/nvme/songxiaoniu/graph-learning/wholegraph
config:graph_name=ogbn-papers100M
config:epochs=4
config:batchsize=8000
config:skip_epoch=2
config:local_step=250
config:presc_epoch=2
config:neighbors=10,25
config:hiddensize=256
config:num_layer=2
config:model=sage
config:framework=dgl
config:dataloaderworkers=0
config:dropout=0.5
config:lr=0.003
config:use_nccl=False
config:use_amp=True
config:use_collcache=True
config:cache_percentage=0.11
config:cache_policy=coll_cache_asymm_link
config:omp_thread_num=40
config:unsupervised=False
config:classnum=172
config:global_barrier=<multiprocessing.synchronize.Barrier object at 0x7f2816e64430>
config:worker_id=0
creating_intra_node_communicator root=0, local_size=4, world_size=4
Rank=0, Graph loaded.
!!!!Train_dataloader(with 37 items) enumerate latency: 1.709334135055542
!!!!Train_data_list(with 37 items) enumerate latency: 8.106231689453125e-06, transfer latency: 1.665736198425293
epoch=4 total_steps=148
presamping
presamping takes 1.8677003383636475
start training...
[Epoch 0], time=1.7662312984466553, loss=5.044639587402344
[Epoch 1], time=0.657231330871582, loss=4.949957370758057
[Epoch 2], time=0.6600875854492188, loss=4.8662028312683105
[Epoch 3], time=0.6585569381713867, loss=4.792425155639648
|===========================================================================|
|                  PyTorch CUDA memory summary, device ID 0                 |
|---------------------------------------------------------------------------|
|            CUDA OOMs: 0            |        cudaMalloc retries: 0         |
|===========================================================================|
|        Metric         | Cur Usage  | Peak Usage | Tot Alloc  | Tot Freed  |
|---------------------------------------------------------------------------|
| Allocated memory      |   75291 KB |  396103 KB |  209304 MB |  209231 MB |
|       from large pool |   68749 KB |  389798 KB |  206813 MB |  206746 MB |
|       from small pool |    6541 KB |    9173 KB |    2491 MB |    2484 MB |
|---------------------------------------------------------------------------|
| Active memory         |   75291 KB |  396103 KB |  209304 MB |  209231 MB |
|       from large pool |   68749 KB |  389798 KB |  206813 MB |  206746 MB |
|       from small pool |    6541 KB |    9173 KB |    2491 MB |    2484 MB |
|---------------------------------------------------------------------------|
| GPU reserved memory   |     854 MB |     854 MB |     854 MB |       0 B  |
|       from large pool |     842 MB |     842 MB |     842 MB |       0 B  |
|       from small pool |      12 MB |      12 MB |      12 MB |       0 B  |
|---------------------------------------------------------------------------|
| Non-releasable memory |   51685 KB |  351438 KB |  174728 MB |  174678 MB |
|       from large pool |   47986 KB |  347397 KB |  172078 MB |  172031 MB |
|       from small pool |    3698 KB |    6911 KB |    2650 MB |    2646 MB |
|---------------------------------------------------------------------------|
| Allocations           |      55    |      69    |   23524    |   23469    |
|       from large pool |      11    |      22    |    8538    |    8527    |
|       from small pool |      44    |      49    |   14986    |   14942    |
|---------------------------------------------------------------------------|
| Active allocs         |      55    |      69    |   23524    |   23469    |
|       from large pool |      11    |      22    |    8538    |    8527    |
|       from small pool |      44    |      49    |   14986    |   14942    |
|---------------------------------------------------------------------------|
| GPU reserved segments |      20    |      20    |      20    |       0    |
|       from large pool |      14    |      14    |      14    |       0    |
|       from small pool |       6    |       6    |       6    |       0    |
|---------------------------------------------------------------------------|
| Non-releasable allocs |      22    |      33    |    9469    |    9447    |
|       from large pool |       7    |      17    |    5122    |    5115    |
|       from small pool |      15    |      23    |    4347    |    4332    |
|---------------------------------------------------------------------------|
| Oversize allocations  |       0    |       0    |       0    |       0    |
|---------------------------------------------------------------------------|
| Oversize GPU segments |       0    |       0    |       0    |       0    |
|===========================================================================|

[TRAIN_TIME] train time is 3.751578 seconds
[EPOCH_TIME] 0.937895 seconds, maybe large due to not enough epoch skipped.
[EPOCH_TIME] 0.659431 seconds
Rank=1, Graph loaded.
!!!!Train_dataloader(with 37 items) enumerate latency: 1.50258207321167
!!!!Train_data_list(with 37 items) enumerate latency: 6.9141387939453125e-06, transfer latency: 1.4476513862609863
presamping
presamping takes 2.1058642864227295
Rank=2, Graph loaded.
!!!!Train_dataloader(with 37 items) enumerate latency: 1.481278419494629
!!!!Train_data_list(with 37 items) enumerate latency: 6.9141387939453125e-06, transfer latency: 1.4606757164001465
presamping
presamping takes 1.8104069232940674
Rank=3, Graph loaded.
!!!!Train_dataloader(with 37 items) enumerate latency: 1.5185496807098389
!!!!Train_data_list(with 37 items) enumerate latency: 8.821487426757812e-06, transfer latency: 1.4945952892303467
presamping
presamping takes 1.911024570465088

